param N := 7;
param M := 7;
param K := 4;
param x_max := 7;
param y_max := 7;
param a := 1.0;
param b := 1.0;
param T := 56;
param i_start := 1 4 2 3 3 2 4 5;
param j_start := 1 1 2 4 3 4 4 4;
param i_end := 1 2 2 3 3 1 4 1;
param j_end := 1 1 2 7 3 4 4 6;